NAME :
TYPE : CCVRP
COMMENT :
DIMENSION : 397
CAPACITY : 1000
EDGE_WEIGHT_TYPE : EUC_2D_DBL
NODE_COORD_TYPE: TWOD_COORD
NODE_COORD_SECTION
1 0.0000 0.0000
2 3.0000 1.0000
3 3.0000 3.0000
4 1.0000 3.0000
5 -1.0000 3.0000
6 -3.0000 3.0000
7 -3.0000 1.0000
8 -3.0000 -1.0000
9 -3.0000 -3.0000
10 -1.0000 -3.0000
11 1.0000 -3.0000
12 3.0000 -3.0000
13 3.0000 -1.0000
14 5.0000 1.0000
15 5.0000 3.0000
16 5.0000 5.0000
17 3.0000 5.0000
18 1.0000 5.0000
19 -1.0000 5.0000
20 -3.0000 5.0000
21 -5.0000 5.0000
22 -5.0000 3.0000
23 -5.0000 1.0000
24 -5.0000 -1.0000
25 -5.0000 -3.0000
26 -5.0000 -5.0000
27 -3.0000 -5.0000
28 -1.0000 -5.0000
29 1.0000 -5.0000
30 3.0000 -5.0000
31 5.0000 -5.0000
32 5.0000 -3.0000
33 5.0000 -1.0000
34 7.0000 1.0000
35 7.0000 3.0000
36 7.0000 5.0000
37 7.0000 7.0000
38 5.0000 7.0000
39 3.0000 7.0000
40 1.0000 7.0000
41 -1.0000 7.0000
42 -3.0000 7.0000
43 -5.0000 7.0000
44 -7.0000 7.0000
45 -7.0000 5.0000
46 -7.0000 3.0000
47 -7.0000 1.0000
48 -7.0000 -1.0000
49 -7.0000 -3.0000
50 -7.0000 -5.0000
51 -7.0000 -7.0000
52 -5.0000 -7.0000
53 -3.0000 -7.0000
54 -1.0000 -7.0000
55 1.0000 -7.0000
56 3.0000 -7.0000
57 5.0000 -7.0000
58 7.0000 -7.0000
59 7.0000 -5.0000
60 7.0000 -3.0000
61 7.0000 -1.0000
62 9.0000 1.0000
63 9.0000 3.0000
64 9.0000 5.0000
65 9.0000 7.0000
66 9.0000 9.0000
67 7.0000 9.0000
68 5.0000 9.0000
69 3.0000 9.0000
70 1.0000 9.0000
71 -1.0000 9.0000
72 -3.0000 9.0000
73 -5.0000 9.0000
74 -7.0000 9.0000
75 -9.0000 9.0000
76 -9.0000 7.0000
77 -9.0000 5.0000
78 -9.0000 3.0000
79 -9.0000 1.0000
80 -9.0000 -1.0000
81 -9.0000 -3.0000
82 -9.0000 -5.0000
83 -9.0000 -7.0000
84 -9.0000 -9.0000
85 -7.0000 -9.0000
86 -5.0000 -9.0000
87 -3.0000 -9.0000
88 -1.0000 -9.0000
89 1.0000 -9.0000
90 3.0000 -9.0000
91 5.0000 -9.0000
92 7.0000 -9.0000
93 9.0000 -9.0000
94 9.0000 -7.0000
95 9.0000 -5.0000
96 9.0000 -3.0000
97 9.0000 -1.0000
98 11.0000 1.0000
99 11.0000 3.0000
100 11.0000 5.0000
101 11.0000 7.0000
102 11.0000 9.0000
103 11.0000 11.0000
104 9.0000 11.0000
105 7.0000 11.0000
106 5.0000 11.0000
107 3.0000 11.0000
108 1.0000 11.0000
109 -1.0000 11.0000
110 -3.0000 11.0000
111 -5.0000 11.0000
112 -7.0000 11.0000
113 -9.0000 11.0000
114 -11.0000 11.0000
115 -11.0000 9.0000
116 -11.0000 7.0000
117 -11.0000 5.0000
118 -11.0000 3.0000
119 -11.0000 1.0000
120 -11.0000 -1.0000
121 -11.0000 -3.0000
122 -11.0000 -5.0000
123 -11.0000 -7.0000
124 -11.0000 -9.0000
125 -11.0000 -11.0000
126 -9.0000 -11.0000
127 -7.0000 -11.0000
128 -5.0000 -11.0000
129 -3.0000 -11.0000
130 -1.0000 -11.0000
131 1.0000 -11.0000
132 3.0000 -11.0000
133 5.0000 -11.0000
134 7.0000 -11.0000
135 9.0000 -11.0000
136 11.0000 -11.0000
137 11.0000 -9.0000
138 11.0000 -7.0000
139 11.0000 -5.0000
140 11.0000 -3.0000
141 11.0000 -1.0000
142 13.0000 1.0000
143 13.0000 3.0000
144 13.0000 5.0000
145 13.0000 7.0000
146 13.0000 9.0000
147 13.0000 11.0000
148 13.0000 13.0000
149 11.0000 13.0000
150 9.0000 13.0000
151 7.0000 13.0000
152 5.0000 13.0000
153 3.0000 13.0000
154 1.0000 13.0000
155 -1.0000 13.0000
156 -3.0000 13.0000
157 -5.0000 13.0000
158 -7.0000 13.0000
159 -9.0000 13.0000
160 -11.0000 13.0000
161 -13.0000 13.0000
162 -13.0000 11.0000
163 -13.0000 9.0000
164 -13.0000 7.0000
165 -13.0000 5.0000
166 -13.0000 3.0000
167 -13.0000 1.0000
168 -13.0000 -1.0000
169 -13.0000 -3.0000
170 -13.0000 -5.0000
171 -13.0000 -7.0000
172 -13.0000 -9.0000
173 -13.0000 -11.0000
174 -13.0000 -13.0000
175 -11.0000 -13.0000
176 -9.0000 -13.0000
177 -7.0000 -13.0000
178 -5.0000 -13.0000
179 -3.0000 -13.0000
180 -1.0000 -13.0000
181 1.0000 -13.0000
182 3.0000 -13.0000
183 5.0000 -13.0000
184 7.0000 -13.0000
185 9.0000 -13.0000
186 11.0000 -13.0000
187 13.0000 -13.0000
188 13.0000 -11.0000
189 13.0000 -9.0000
190 13.0000 -7.0000
191 13.0000 -5.0000
192 13.0000 -3.0000
193 13.0000 -1.0000
194 15.0000 1.0000
195 15.0000 3.0000
196 15.0000 5.0000
197 15.0000 7.0000
198 15.0000 9.0000
199 15.0000 11.0000
200 15.0000 13.0000
201 15.0000 15.0000
202 13.0000 15.0000
203 11.0000 15.0000
204 9.0000 15.0000
205 7.0000 15.0000
206 5.0000 15.0000
207 3.0000 15.0000
208 1.0000 15.0000
209 -1.0000 15.0000
210 -3.0000 15.0000
211 -5.0000 15.0000
212 -7.0000 15.0000
213 -9.0000 15.0000
214 -11.0000 15.0000
215 -13.0000 15.0000
216 -15.0000 15.0000
217 -15.0000 13.0000
218 -15.0000 11.0000
219 -15.0000 9.0000
220 -15.0000 7.0000
221 -15.0000 5.0000
222 -15.0000 3.0000
223 -15.0000 1.0000
224 -15.0000 -1.0000
225 -15.0000 -3.0000
226 -15.0000 -5.0000
227 -15.0000 -7.0000
228 -15.0000 -9.0000
229 -15.0000 -11.0000
230 -15.0000 -13.0000
231 -15.0000 -15.0000
232 -13.0000 -15.0000
233 -11.0000 -15.0000
234 -9.0000 -15.0000
235 -7.0000 -15.0000
236 -5.0000 -15.0000
237 -3.0000 -15.0000
238 -1.0000 -15.0000
239 1.0000 -15.0000
240 3.0000 -15.0000
241 5.0000 -15.0000
242 7.0000 -15.0000
243 9.0000 -15.0000
244 11.0000 -15.0000
245 13.0000 -15.0000
246 15.0000 -15.0000
247 15.0000 -13.0000
248 15.0000 -11.0000
249 15.0000 -9.0000
250 15.0000 -7.0000
251 15.0000 -5.0000
252 15.0000 -3.0000
253 15.0000 -1.0000
254 17.0000 1.0000
255 17.0000 3.0000
256 17.0000 5.0000
257 17.0000 7.0000
258 17.0000 9.0000
259 17.0000 11.0000
260 17.0000 13.0000
261 17.0000 15.0000
262 17.0000 17.0000
263 15.0000 17.0000
264 13.0000 17.0000
265 11.0000 17.0000
266 9.0000 17.0000
267 7.0000 17.0000
268 5.0000 17.0000
269 3.0000 17.0000
270 1.0000 17.0000
271 -1.0000 17.0000
272 -3.0000 17.0000
273 -5.0000 17.0000
274 -7.0000 17.0000
275 -9.0000 17.0000
276 -11.0000 17.0000
277 -13.0000 17.0000
278 -15.0000 17.0000
279 -17.0000 17.0000
280 -17.0000 15.0000
281 -17.0000 13.0000
282 -17.0000 11.0000
283 -17.0000 9.0000
284 -17.0000 7.0000
285 -17.0000 5.0000
286 -17.0000 3.0000
287 -17.0000 1.0000
288 -17.0000 -1.0000
289 -17.0000 -3.0000
290 -17.0000 -5.0000
291 -17.0000 -7.0000
292 -17.0000 -9.0000
293 -17.0000 -11.0000
294 -17.0000 -13.0000
295 -17.0000 -15.0000
296 -17.0000 -17.0000
297 -15.0000 -17.0000
298 -13.0000 -17.0000
299 -11.0000 -17.0000
300 -9.0000 -17.0000
301 -7.0000 -17.0000
302 -5.0000 -17.0000
303 -3.0000 -17.0000
304 -1.0000 -17.0000
305 1.0000 -17.0000
306 3.0000 -17.0000
307 5.0000 -17.0000
308 7.0000 -17.0000
309 9.0000 -17.0000
310 11.0000 -17.0000
311 13.0000 -17.0000
312 15.0000 -17.0000
313 17.0000 -17.0000
314 17.0000 -15.0000
315 17.0000 -13.0000
316 17.0000 -11.0000
317 17.0000 -9.0000
318 17.0000 -7.0000
319 17.0000 -5.0000
320 17.0000 -3.0000
321 17.0000 -1.0000
322 19.0000 1.0000
323 19.0000 3.0000
324 19.0000 5.0000
325 19.0000 7.0000
326 19.0000 9.0000
327 19.0000 11.0000
328 19.0000 13.0000
329 19.0000 15.0000
330 19.0000 17.0000
331 19.0000 19.0000
332 17.0000 19.0000
333 15.0000 19.0000
334 13.0000 19.0000
335 11.0000 19.0000
336 9.0000 19.0000
337 7.0000 19.0000
338 5.0000 19.0000
339 3.0000 19.0000
340 1.0000 19.0000
341 -1.0000 19.0000
342 -3.0000 19.0000
343 -5.0000 19.0000
344 -7.0000 19.0000
345 -9.0000 19.0000
346 -11.0000 19.0000
347 -13.0000 19.0000
348 -15.0000 19.0000
349 -17.0000 19.0000
350 -19.0000 19.0000
351 -19.0000 17.0000
352 -19.0000 15.0000
353 -19.0000 13.0000
354 -19.0000 11.0000
355 -19.0000 9.0000
356 -19.0000 7.0000
357 -19.0000 5.0000
358 -19.0000 3.0000
359 -19.0000 1.0000
360 -19.0000 -1.0000
361 -19.0000 -3.0000
362 -19.0000 -5.0000
363 -19.0000 -7.0000
364 -19.0000 -9.0000
365 -19.0000 -11.0000
366 -19.0000 -13.0000
367 -19.0000 -15.0000
368 -19.0000 -17.0000
369 -19.0000 -19.0000
370 -17.0000 -19.0000
371 -15.0000 -19.0000
372 -13.0000 -19.0000
373 -11.0000 -19.0000
374 -9.0000 -19.0000
375 -7.0000 -19.0000
376 -5.0000 -19.0000
377 -3.0000 -19.0000
378 -1.0000 -19.0000
379 1.0000 -19.0000
380 3.0000 -19.0000
381 5.0000 -19.0000
382 7.0000 -19.0000
383 9.0000 -19.0000
384 11.0000 -19.0000
385 13.0000 -19.0000
386 15.0000 -19.0000
387 17.0000 -19.0000
388 19.0000 -19.0000
389 19.0000 -17.0000
390 19.0000 -15.0000
391 19.0000 -13.0000
392 19.0000 -11.0000
393 19.0000 -9.0000
394 19.0000 -7.0000
395 19.0000 -5.0000
396 19.0000 -3.0000
397 19.0000 -1.0000
DEMAND_SECTION
1 0
2 300
3 300
4 300
5 300
6 300
7 300
8 300
9 300
10 300
11 300
12 300
13 300
14 180
15 180
16 180
17 180
18 180
19 180
20 180
21 180
22 180
23 180
24 180
25 180
26 180
27 180
28 180
29 180
30 180
31 180
32 180
33 180
34 128
35 128
36 128
37 128
38 128
39 128
40 128
41 128
42 128
43 128
44 128
45 128
46 128
47 128
48 128
49 128
50 128
51 128
52 128
53 128
54 128
55 128
56 128
57 128
58 128
59 128
60 128
61 128
62 100
63 100
64 100
65 100
66 100
67 100
68 100
69 100
70 100
71 100
72 100
73 100
74 100
75 100
76 100
77 100
78 100
79 100
80 100
81 100
82 100
83 100
84 100
85 100
86 100
87 100
88 100
89 100
90 100
91 100
92 100
93 100
94 100
95 100
96 100
97 100
98 81
99 81
100 81
101 81
102 81
103 81
104 81
105 81
106 81
107 81
108 81
109 81
110 81
111 81
112 81
113 81
114 81
115 81
116 81
117 81
118 81
119 81
120 81
121 81
122 81
123 81
124 81
125 81
126 81
127 81
128 81
129 81
130 81
131 81
132 81
133 81
134 81
135 81
136 81
137 81
138 81
139 81
140 81
141 81
142 69
143 69
144 69
145 69
146 69
147 69
148 69
149 69
150 69
151 69
152 69
153 69
154 69
155 69
156 69
157 69
158 69
159 69
160 69
161 69
162 69
163 69
164 69
165 69
166 69
167 69
168 69
169 69
170 69
171 69
172 69
173 69
174 69
175 69
176 69
177 69
178 69
179 69
180 69
181 69
182 69
183 69
184 69
185 69
186 69
187 69
188 69
189 69
190 69
191 69
192 69
193 69
194 60
195 60
196 60
197 60
198 60
199 60
200 60
201 60
202 60
203 60
204 60
205 60
206 60
207 60
208 60
209 60
210 60
211 60
212 60
213 60
214 60
215 60
216 60
217 60
218 60
219 60
220 60
221 60
222 60
223 60
224 60
225 60
226 60
227 60
228 60
229 60
230 60
231 60
232 60
233 60
234 60
235 60
236 60
237 60
238 60
239 60
240 60
241 60
242 60
243 60
244 60
245 60
246 60
247 60
248 60
249 60
250 60
251 60
252 60
253 60
254 52
255 52
256 52
257 52
258 52
259 52
260 52
261 52
262 52
263 52
264 52
265 52
266 52
267 52
268 52
269 52
270 52
271 52
272 52
273 52
274 52
275 52
276 52
277 52
278 52
279 52
280 52
281 52
282 52
283 52
284 52
285 52
286 52
287 52
288 52
289 52
290 52
291 52
292 52
293 52
294 52
295 52
296 52
297 52
298 52
299 52
300 52
301 52
302 52
303 52
304 52
305 52
306 52
307 52
308 52
309 52
310 52
311 52
312 52
313 52
314 52
315 52
316 52
317 52
318 52
319 52
320 52
321 52
322 47
323 47
324 47
325 47
326 47
327 47
328 47
329 47
330 47
331 47
332 47
333 47
334 47
335 47
336 47
337 47
338 47
339 47
340 47
341 47
342 47
343 47
344 47
345 47
346 47
347 47
348 47
349 47
350 47
351 47
352 47
353 47
354 47
355 47
356 47
357 47
358 47
359 47
360 47
361 47
362 47
363 47
364 47
365 47
366 47
367 47
368 47
369 47
370 47
371 47
372 47
373 47
374 47
375 47
376 47
377 47
378 47
379 47
380 47
381 47
382 47
383 47
384 47
385 47
386 47
387 47
388 47
389 47
390 47
391 47
392 47
393 47
394 47
395 47
396 47
397 47
CLUSTER_SECTION
1 36
2 1
3 1
4 1
5 2
6 2
7 2
8 3
9 3
10 3
11 4
12 4
13 4
14 5
15 5
16 6
17 6
18 7
19 7
20 7
21 8
22 8
23 9
24 9
25 9
26 10
27 10
28 11
29 11
30 11
31 12
32 12
33 5
34 5
35 5
36 6
37 6
38 6
39 6
40 7
41 7
42 7
43 8
44 8
45 8
46 8
47 9
48 9
49 9
50 10
51 10
52 10
53 10
54 11
55 11
56 11
57 12
58 12
59 12
60 12
61 5
62 13
63 13
64 13
65 14
66 14
67 14
68 14
69 15
70 15
71 15
72 16
73 16
74 16
75 16
76 16
77 17
78 17
79 17
80 18
81 18
82 18
83 18
84 19
85 19
86 19
87 20
88 20
89 20
90 12
91 21
92 21
93 21
94 21
95 21
96 13
97 13
98 13
99 13
100 13
101 14
102 14
103 14
104 14
105 14
106 15
107 15
108 15
109 15
110 16
111 16
112 16
113 22
114 22
115 17
116 17
117 17
118 17
119 17
120 18
121 18
122 18
123 18
124 19
125 19
126 19
127 19
128 19
129 20
130 20
131 20
132 20
133 21
134 21
135 21
136 23
137 23
138 23
139 24
140 13
141 13
142 13
143 24
144 14
145 14
146 25
147 25
148 25
149 25
150 25
151 15
152 15
153 15
154 15
155 15
156 16
157 16
158 16
159 22
160 22
161 22
162 22
163 17
164 17
165 17
166 17
167 18
168 18
169 18
170 18
171 19
172 19
173 19
174 26
175 19
176 26
177 20
178 20
179 20
180 20
181 20
182 21
183 21
184 21
185 23
186 23
187 23
188 23
189 23
190 23
191 24
192 24
193 24
194 24
195 25
196 25
197 25
198 25
199 25
200 25
201 27
202 27
203 27
204 27
205 28
206 28
207 28
208 28
209 28
210 28
211 22
212 22
213 22
214 22
215 22
216 29
217 22
218 22
219 22
220 30
221 30
222 30
223 30
224 30
225 30
226 31
227 31
228 26
229 26
230 26
231 26
232 26
233 26
234 26
235 31
236 31
237 32
238 32
239 32
240 32
241 32
242 33
243 23
244 23
245 23
246 33
247 23
248 23
249 24
250 24
251 24
252 24
253 24
254 34
255 34
256 25
257 25
258 25
259 25
260 25
261 27
262 27
263 27
264 27
265 27
266 27
267 28
268 28
269 28
270 28
271 28
272 28
273 34
274 22
275 29
276 29
277 29
278 29
279 29
280 29
281 29
282 29
283 29
284 30
285 30
286 30
287 30
288 30
289 30
290 31
291 31
292 26
293 26
294 26
295 26
296 26
297 26
298 26
299 26
300 31
301 31
302 32
303 32
304 32
305 32
306 32
307 32
308 33
309 33
310 33
311 33
312 33
313 33
314 33
315 33
316 33
317 24
318 24
319 24
320 24
321 24
322 34
323 34
324 34
325 34
326 34
327 27
328 27
329 27
330 27
331 27
332 27
333 27
334 27
335 27
336 28
337 28
338 28
339 28
340 28
341 28
342 34
343 34
344 34
345 29
346 29
347 29
348 29
349 29
350 29
351 29
352 29
353 29
354 29
355 30
356 30
357 30
358 30
359 30
360 30
361 31
362 31
363 31
364 31
365 31
366 31
367 31
368 31
369 31
370 31
371 31
372 35
373 32
374 32
375 32
376 32
377 32
378 32
379 32
380 32
381 33
382 33
383 33
384 33
385 33
386 33
387 33
388 33
389 34
390 34
391 34
392 34
393 34
394 34
395 34
396 34
397 34
DEPOT_SECTION
1
-1
EOF
